c File: flat50_3_0.col
c
c SOURCE: Joseph Culberson (joe@cs.ualberta.ca)
c DESCRIPTION: Quasi-random coloring problem
c              generated with flatness = 0
c                             probability = 0.139
c                             known coloring = 3
c                             random seed = 1377
c              Creation Date:  Tue Jun  9 12:07:51 1998
c Maximum degree = 8 Minimum degree = 1
c p edge 50 115
c cnf created by edge2cnf
p cnf 150 545
-1 -2 0
-1 -3 0
-2 -3 0
1 2 3 0
-4 -5 0
-4 -6 0
-5 -6 0
4 5 6 0
-7 -8 0
-7 -9 0
-8 -9 0
7 8 9 0
-10 -11 0
-10 -12 0
-11 -12 0
10 11 12 0
-13 -14 0
-13 -15 0
-14 -15 0
13 14 15 0
-16 -17 0
-16 -18 0
-17 -18 0
16 17 18 0
-19 -20 0
-19 -21 0
-20 -21 0
19 20 21 0
-22 -23 0
-22 -24 0
-23 -24 0
22 23 24 0
-25 -26 0
-25 -27 0
-26 -27 0
25 26 27 0
-28 -29 0
-28 -30 0
-29 -30 0
28 29 30 0
-31 -32 0
-31 -33 0
-32 -33 0
31 32 33 0
-34 -35 0
-34 -36 0
-35 -36 0
34 35 36 0
-37 -38 0
-37 -39 0
-38 -39 0
37 38 39 0
-40 -41 0
-40 -42 0
-41 -42 0
40 41 42 0
-43 -44 0
-43 -45 0
-44 -45 0
43 44 45 0
-46 -47 0
-46 -48 0
-47 -48 0
46 47 48 0
-49 -50 0
-49 -51 0
-50 -51 0
49 50 51 0
-52 -53 0
-52 -54 0
-53 -54 0
52 53 54 0
-55 -56 0
-55 -57 0
-56 -57 0
55 56 57 0
-58 -59 0
-58 -60 0
-59 -60 0
58 59 60 0
-61 -62 0
-61 -63 0
-62 -63 0
61 62 63 0
-64 -65 0
-64 -66 0
-65 -66 0
64 65 66 0
-67 -68 0
-67 -69 0
-68 -69 0
67 68 69 0
-70 -71 0
-70 -72 0
-71 -72 0
70 71 72 0
-73 -74 0
-73 -75 0
-74 -75 0
73 74 75 0
-76 -77 0
-76 -78 0
-77 -78 0
76 77 78 0
-79 -80 0
-79 -81 0
-80 -81 0
79 80 81 0
-82 -83 0
-82 -84 0
-83 -84 0
82 83 84 0
-85 -86 0
-85 -87 0
-86 -87 0
85 86 87 0
-88 -89 0
-88 -90 0
-89 -90 0
88 89 90 0
-91 -92 0
-91 -93 0
-92 -93 0
91 92 93 0
-94 -95 0
-94 -96 0
-95 -96 0
94 95 96 0
-97 -98 0
-97 -99 0
-98 -99 0
97 98 99 0
-100 -101 0
-100 -102 0
-101 -102 0
100 101 102 0
-103 -104 0
-103 -105 0
-104 -105 0
103 104 105 0
-106 -107 0
-106 -108 0
-107 -108 0
106 107 108 0
-109 -110 0
-109 -111 0
-110 -111 0
109 110 111 0
-112 -113 0
-112 -114 0
-113 -114 0
112 113 114 0
-115 -116 0
-115 -117 0
-116 -117 0
115 116 117 0
-118 -119 0
-118 -120 0
-119 -120 0
118 119 120 0
-121 -122 0
-121 -123 0
-122 -123 0
121 122 123 0
-124 -125 0
-124 -126 0
-125 -126 0
124 125 126 0
-127 -128 0
-127 -129 0
-128 -129 0
127 128 129 0
-130 -131 0
-130 -132 0
-131 -132 0
130 131 132 0
-133 -134 0
-133 -135 0
-134 -135 0
133 134 135 0
-136 -137 0
-136 -138 0
-137 -138 0
136 137 138 0
-139 -140 0
-139 -141 0
-140 -141 0
139 140 141 0
-142 -143 0
-142 -144 0
-143 -144 0
142 143 144 0
-145 -146 0
-145 -147 0
-146 -147 0
145 146 147 0
-148 -149 0
-148 -150 0
-149 -150 0
148 149 150 0
-70 -1 0
-71 -2 0
-72 -3 0
-85 -1 0
-86 -2 0
-87 -3 0
-88 -1 0
-89 -2 0
-90 -3 0
-133 -1 0
-134 -2 0
-135 -3 0
-148 -1 0
-149 -2 0
-150 -3 0
-52 -4 0
-53 -5 0
-54 -6 0
-124 -4 0
-125 -5 0
-126 -6 0
-136 -4 0
-137 -5 0
-138 -6 0
-145 -4 0
-146 -5 0
-147 -6 0
-91 -7 0
-92 -8 0
-93 -9 0
-130 -7 0
-131 -8 0
-132 -9 0
-85 -10 0
-86 -11 0
-87 -12 0
-100 -10 0
-101 -11 0
-102 -12 0
-118 -10 0
-119 -11 0
-120 -12 0
-133 -10 0
-134 -11 0
-135 -12 0
-142 -10 0
-143 -11 0
-144 -12 0
-70 -13 0
-71 -14 0
-72 -15 0
-100 -13 0
-101 -14 0
-102 -15 0
-118 -13 0
-119 -14 0
-120 -15 0
-139 -13 0
-140 -14 0
-141 -15 0
-52 -16 0
-53 -17 0
-54 -18 0
-73 -16 0
-74 -17 0
-75 -18 0
-106 -16 0
-107 -17 0
-108 -18 0
-109 -16 0
-110 -17 0
-111 -18 0
-112 -16 0
-113 -17 0
-114 -18 0
-67 -19 0
-68 -20 0
-69 -21 0
-82 -19 0
-83 -20 0
-84 -21 0
-85 -19 0
-86 -20 0
-87 -21 0
-106 -19 0
-107 -20 0
-108 -21 0
-115 -19 0
-116 -20 0
-117 -21 0
-124 -19 0
-125 -20 0
-126 -21 0
-55 -22 0
-56 -23 0
-57 -24 0
-76 -22 0
-77 -23 0
-78 -24 0
-115 -22 0
-116 -23 0
-117 -24 0
-127 -22 0
-128 -23 0
-129 -24 0
-139 -22 0
-140 -23 0
-141 -24 0
-61 -25 0
-62 -26 0
-63 -27 0
-70 -25 0
-71 -26 0
-72 -27 0
-85 -25 0
-86 -26 0
-87 -27 0
-100 -25 0
-101 -26 0
-102 -27 0
-109 -25 0
-110 -26 0
-111 -27 0
-142 -25 0
-143 -26 0
-144 -27 0
-64 -28 0
-65 -29 0
-66 -30 0
-112 -28 0
-113 -29 0
-114 -30 0
-67 -31 0
-68 -32 0
-69 -33 0
-88 -31 0
-89 -32 0
-90 -33 0
-94 -31 0
-95 -32 0
-96 -33 0
-100 -31 0
-101 -32 0
-102 -33 0
-145 -31 0
-146 -32 0
-147 -33 0
-67 -34 0
-68 -35 0
-69 -36 0
-88 -34 0
-89 -35 0
-90 -36 0
-103 -34 0
-104 -35 0
-105 -36 0
-133 -34 0
-134 -35 0
-135 -36 0
-61 -37 0
-62 -38 0
-63 -39 0
-76 -37 0
-77 -38 0
-78 -39 0
-88 -37 0
-89 -38 0
-90 -39 0
-127 -37 0
-128 -38 0
-129 -39 0
-64 -40 0
-65 -41 0
-66 -42 0
-112 -40 0
-113 -41 0
-114 -42 0
-115 -40 0
-116 -41 0
-117 -42 0
-118 -40 0
-119 -41 0
-120 -42 0
-139 -40 0
-140 -41 0
-141 -42 0
-91 -43 0
-92 -44 0
-93 -45 0
-112 -43 0
-113 -44 0
-114 -45 0
-127 -43 0
-128 -44 0
-129 -45 0
-67 -46 0
-68 -47 0
-69 -48 0
-73 -46 0
-74 -47 0
-75 -48 0
-76 -46 0
-77 -47 0
-78 -48 0
-94 -46 0
-95 -47 0
-96 -48 0
-115 -46 0
-116 -47 0
-117 -48 0
-121 -46 0
-122 -47 0
-123 -48 0
-124 -46 0
-125 -47 0
-126 -48 0
-142 -46 0
-143 -47 0
-144 -48 0
-55 -49 0
-56 -50 0
-57 -51 0
-76 -49 0
-77 -50 0
-78 -51 0
-79 -49 0
-80 -50 0
-81 -51 0
-82 -49 0
-83 -50 0
-84 -51 0
-142 -49 0
-143 -50 0
-144 -51 0
-142 -52 0
-143 -53 0
-144 -54 0
-103 -55 0
-104 -56 0
-105 -57 0
-121 -55 0
-122 -56 0
-123 -57 0
-127 -55 0
-128 -56 0
-129 -57 0
-133 -55 0
-134 -56 0
-135 -57 0
-115 -58 0
-116 -59 0
-117 -60 0
-136 -58 0
-137 -59 0
-138 -60 0
-139 -58 0
-140 -59 0
-141 -60 0
-127 -61 0
-128 -62 0
-129 -63 0
-145 -61 0
-146 -62 0
-147 -63 0
-106 -64 0
-107 -65 0
-108 -66 0
-103 -67 0
-104 -68 0
-105 -69 0
-112 -67 0
-113 -68 0
-114 -69 0
-145 -67 0
-146 -68 0
-147 -69 0
-148 -67 0
-149 -68 0
-150 -69 0
-106 -70 0
-107 -71 0
-108 -72 0
-139 -70 0
-140 -71 0
-141 -72 0
-142 -70 0
-143 -71 0
-144 -72 0
-148 -70 0
-149 -71 0
-150 -72 0
-103 -76 0
-104 -77 0
-105 -78 0
-109 -76 0
-110 -77 0
-111 -78 0
-148 -76 0
-149 -77 0
-150 -78 0
-136 -79 0
-137 -80 0
-138 -81 0
-145 -79 0
-146 -80 0
-147 -81 0
-106 -82 0
-107 -83 0
-108 -84 0
-148 -82 0
-149 -83 0
-150 -84 0
-127 -85 0
-128 -86 0
-129 -87 0
-139 -85 0
-140 -86 0
-141 -87 0
-133 -88 0
-134 -89 0
-135 -90 0
-142 -88 0
-143 -89 0
-144 -90 0
-103 -91 0
-104 -92 0
-105 -93 0
-106 -91 0
-107 -92 0
-108 -93 0
-124 -91 0
-125 -92 0
-126 -93 0
-136 -91 0
-137 -92 0
-138 -93 0
-133 -94 0
-134 -95 0
-135 -96 0
-142 -94 0
-143 -95 0
-144 -96 0
-145 -97 0
-146 -98 0
-147 -99 0
